Grasp exp. instance_n_25_m_10_id_3.lp tipoLifted 0 szPool 5 nIteration 20 alpha 0.4 
Academic license - for non-commercial use only
Read LP format model from file ../input/instancesGenerated/instance_n_25_m_10_id_3.lp
Reading time = 0.00 seconds
: 10 rows, 25 columns, 127 nonzeros
Optimize a model with 10 rows, 25 columns and 127 nonzeros
Variable types: 0 continuous, 25 integer (25 binary)
Coefficient statistics:
  Matrix range     [1e+00, 1e+01]
  Objective range  [1e+00, 1e+01]
  Bounds range     [1e+00, 1e+00]
  RHS range        [2e+01, 5e+01]
Found heuristic solution: objective 72.0000000

Explored 0 nodes (0 simplex iterations) in 0.00 seconds
Thread count was 1 (of 8 available processors)

Solution count 1: 72 
No other solutions better than 0

Solution limit reached
Best objective 7.200000000000e+01, best bound -, gap -
C_1:	 6.00 x_1  = 0.802813 + 10.00 x_3  = 0.000000 + 6.00 x_4  = 0.000000 + 6.00 x_6  = 0.425902 + 3.00 x_7  = 0.935245 + 9.00 x_9  = 0.740716 + 7.00 x_10  = 0.000000 + 1.00 x_14  = 0.000000 + 10.00 x_15  = 1.000000 + 9.00 x_16  = 0.398359 + 9.00 x_19  = 1.000000 + 1.00 x_20  = 0.570302 + 6.00 x_24  = 1.000000 + 10.00 x_25  = 0.000000 <= 46.00
C_2:	 10.00 x_1  = 0.802813 + 1.00 x_2  = 0.567273 + 10.00 x_4  = 0.000000 + 9.00 x_6  = 0.425902 + 7.00 x_7  = 0.935245 + 7.00 x_10  = 0.000000 + 10.00 x_12  = 0.883790 + 1.00 x_13  = 1.000000 + 1.00 x_14  = 0.000000 + 6.00 x_15  = 1.000000 + 8.00 x_16  = 0.398359 + 4.00 x_17  = 0.000000 + 7.00 x_23  = 0.000000 + 4.00 x_24  = 1.000000 <= 42.00
C_3:	 4.00 x_1  = 0.802813 + 1.00 x_3  = 0.000000 + 5.00 x_4  = 0.000000 + 9.00 x_7  = 0.935245 + 7.00 x_9  = 0.740716 + 8.00 x_10  = 0.000000 + 3.00 x_11  = 1.000000 + 7.00 x_12  = 0.883790 + 10.00 x_14  = 0.000000 + 5.00 x_21  = 1.000000 + 3.00 x_25  = 0.000000 <= 31.00
C_4:	 1.00 x_1  = 0.802813 + 6.00 x_8  = 0.000000 + 3.00 x_9  = 0.740716 + 7.00 x_12  = 0.883790 + 7.00 x_16  = 0.398359 + 8.00 x_17  = 0.000000 + 4.00 x_19  = 1.000000 + 7.00 x_21  = 1.000000 + 3.00 x_23  = 0.000000 <= 23.00
C_5:	 1.00 x_1  = 0.802813 + 8.00 x_2  = 0.567273 + 5.00 x_3  = 0.000000 + 7.00 x_4  = 0.000000 + 4.00 x_5  = 1.000000 + 2.00 x_7  = 0.935245 + 3.00 x_8  = 0.000000 + 9.00 x_10  = 0.000000 + 9.00 x_13  = 1.000000 + 8.00 x_14  = 0.000000 + 4.00 x_15  = 1.000000 + 7.00 x_16  = 0.398359 + 2.00 x_21  = 1.000000 + 9.00 x_22  = 1.000000 + 7.00 x_23  = 0.000000 + 9.00 x_24  = 1.000000 <= 47.00
C_6:	 10.00 x_1  = 0.802813 + 2.00 x_3  = 0.000000 + 2.00 x_4  = 0.000000 + 2.00 x_7  = 0.935245 + 6.00 x_10  = 0.000000 + 1.00 x_11  = 1.000000 + 7.00 x_14  = 0.000000 + 1.00 x_16  = 0.398359 + 9.00 x_18  = 0.000000 + 5.00 x_19  = 1.000000 + 10.00 x_20  = 0.570302 + 8.00 x_21  = 1.000000 + 6.00 x_22  = 1.000000 + 7.00 x_23  = 0.000000 + 9.00 x_24  = 1.000000 + 5.00 x_25  = 0.000000 <= 45.00
C_7:	 10.00 x_4  = 0.000000 + 3.00 x_6  = 0.425902 + 2.00 x_8  = 0.000000 + 9.00 x_9  = 0.740716 + 2.00 x_12  = 0.883790 + 6.00 x_20  = 0.570302 + 9.00 x_21  = 1.000000 + 6.00 x_23  = 0.000000 <= 23.00
C_8:	 2.00 x_1  = 0.802813 + 5.00 x_2  = 0.567273 + 7.00 x_6  = 0.425902 + 10.00 x_8  = 0.000000 + 6.00 x_9  = 0.740716 + 3.00 x_10  = 0.000000 + 10.00 x_11  = 1.000000 + 9.00 x_14  = 0.000000 + 3.00 x_15  = 1.000000 + 5.00 x_16  = 0.398359 + 10.00 x_18  = 0.000000 + 9.00 x_19  = 1.000000 + 2.00 x_20  = 0.570302 + 7.00 x_21  = 1.000000 <= 44.00
C_9:	 4.00 x_2  = 0.567273 + 3.00 x_3  = 0.000000 + 5.00 x_4  = 0.000000 + 3.00 x_5  = 1.000000 + 2.00 x_6  = 0.425902 + 3.00 x_7  = 0.935245 + 3.00 x_8  = 0.000000 + 3.00 x_9  = 0.740716 + 7.00 x_10  = 0.000000 + 5.00 x_12  = 0.883790 + 9.00 x_14  = 0.000000 + 8.00 x_16  = 0.398359 + 1.00 x_19  = 1.000000 + 10.00 x_24  = 1.000000 + 3.00 x_25  = 0.000000 <= 34.00
C_10:	 9.00 x_3  = 0.000000 + 5.00 x_5  = 1.000000 + 10.00 x_6  = 0.425902 + 4.00 x_7  = 0.935245 + 6.00 x_10  = 0.000000 + 1.00 x_14  = 0.000000 + 1.00 x_15  = 1.000000 + 1.00 x_19  = 1.000000 + 3.00 x_22  = 1.000000 + 3.00 x_24  = 1.000000 <= 21.00
Solution initial: 98.391339 
Number Constraints Used in Cover:10
GRASP Method!
Number cuts repeat: 0
value: 98.391339
Number Constraints Used in Cover:14
GRASP Method!
Number cuts repeat: 0
value: 98.391339
Number Constraints Used in Cover:18
GRASP Method!
Number cuts repeat: 0
value: 98.391339
Number Constraints Used in Cover:23
GRASP Method!
Number cuts repeat: 0
value: 98.391339
Number Constraints Used in Cover:31
GRASP Method!
Number cuts repeat: 0
value: 98.391339
Number Constraints Used in Cover:35
GRASP Method!
Number cuts repeat: 0
value: 98.391339
Number Constraints Used in Cover:41
GRASP Method!
Number cuts repeat: 0
value: 98.391339
Number Constraints Used in Cover:46
GRASP Method!
Number cuts repeat: 0
value: 98.391339
Number Constraints Used in Cover:56
GRASP Method!
Number cuts repeat: 0
value: 98.391339
Number Constraints Used in Cover:60
GRASP Method!
Number cuts repeat: 0
value: 98.391339
Number Constraints Used in Cover:68
GRASP Method!
Number cuts repeat: 0
value: 97.981883
Number Constraints Used in Cover:76
GRASP Method!
Number cuts repeat: 0
value: 97.981883
Number Constraints Used in Cover:78
GRASP Method!
Number cuts repeat: 0
value: 97.981883
Number Constraints Used in Cover:93
GRASP Method!
Number cuts repeat: 0
value: 97.981883
Number Constraints Used in Cover:106
GRASP Method!
Number cuts repeat: 0
value: 97.981883
Number Constraints Used in Cover:115
GRASP Method!
Number cuts repeat: 0
value: 97.981883
Number Constraints Used in Cover:121
GRASP Method!
Number cuts repeat: 0
value: 97.981883
Number Constraints Used in Cover:132
GRASP Method!
Number cuts repeat: 0
value: 97.981883
Number Constraints Used in Cover:136
GRASP Method!
Number cuts repeat: 0
value: 97.981883
Number Constraints Used in Cover:144
GRASP Method!
Number cuts repeat: 0
value: 97.981883
Number Constraints Used in Cover:152
GRASP Method!
Number cuts repeat: 0
value: 97.981883
Number Constraints Used in Cover:157
GRASP Method!
Number cuts repeat: 0
value: 97.981883
Number Constraints Used in Cover:168
GRASP Method!
Number cuts repeat: 0
value: 97.981883
Number Constraints Used in Cover:176
GRASP Method!
Number cuts repeat: 0
value: 97.981883
Number Constraints Used in Cover:185
GRASP Method!
Number cuts repeat: 0
value: 97.981883
Number Constraints Used in Cover:195
GRASP Method!
Number cuts repeat: 0
value: 97.981883
Number Constraints Used in Cover:203
GRASP Method!
Number cuts repeat: 0
value: 97.981883
Number Constraints Used in Cover:208
GRASP Method!
Number cuts repeat: 0
value: 97.981883
Number Constraints Used in Cover:216
GRASP Method!
Number cuts repeat: 0
value: 97.981883
Number Constraints Used in Cover:223
GRASP Method!
Number cuts repeat: 0
value: 97.981883
Number Constraints Used in Cover:228
GRASP Method!
Number cuts repeat: 0
value: 97.981883
Number Constraints Used in Cover:232
GRASP Method!
Number cuts repeat: 0
value: 97.981883
Number Constraints Used in Cover:244
GRASP Method!
Number cuts repeat: 0
value: 97.981883
Number Constraints Used in Cover:250
GRASP Method!
Number cuts repeat: 0
value: 97.981883
Number Constraints Used in Cover:251
GRASP Method!
Number cuts repeat: 0
value: 97.981883
Number Constraints Used in Cover:256
GRASP Method!
Number cuts repeat: 0
value: 97.981883
Number Constraints Used in Cover:259
GRASP Method!
Number cuts repeat: 0
value: 97.981883
Number Constraints Used in Cover:263
GRASP Method!
Number cuts repeat: 0
value: 97.981883
Number Constraints Used in Cover:269
GRASP Method!
Number cuts repeat: 0
value: 97.981883
Number Constraints Used in Cover:282
GRASP Method!
Number cuts repeat: 0
value: 97.981883
Number Constraints Used in Cover:294
GRASP Method!
Number cuts repeat: 0
value: 97.981883
Number Constraints Used in Cover:312
GRASP Method!
Number cuts repeat: 0
value: 97.981883
Number Constraints Used in Cover:321
GRASP Method!
Number cuts repeat: 0
value: 97.981883
Number Constraints Used in Cover:329
GRASP Method!
Number cuts repeat: 0
value: 97.981883
Number Constraints Used in Cover:345
GRASP Method!
Number cuts repeat: 0
value: 97.981883
Number Constraints Used in Cover:359
GRASP Method!
Number cuts repeat: 0
value: 97.981883
Number Constraints Used in Cover:370
GRASP Method!
Number cuts repeat: 0
value: 97.981883
Number Constraints Used in Cover:384
GRASP Method!
Number cuts repeat: 0
value: 97.981883
Number Constraints Used in Cover:394
GRASP Method!
Number cuts repeat: 0
value: 97.981883
Number Constraints Used in Cover:408
GRASP Method!
Number cuts repeat: 0
value: 97.981883
Number Constraints Used in Cover:420
GRASP Method!
Number cuts repeat: 0
value: 97.981883
Number Constraints Used in Cover:428
GRASP Method!
Number cuts repeat: 0
value: 97.981883
Number Constraints Used in Cover:441
GRASP Method!
Number cuts repeat: 0
value: 97.981883
Number Constraints Used in Cover:448
GRASP Method!
Number cuts repeat: 0
value: 97.981883
Number Constraints Used in Cover:453
GRASP Method!
Number cuts repeat: 0
value: 97.981883
Number Constraints Used in Cover:462
GRASP Method!
Number cuts repeat: 0
value: 97.981883
Number Constraints Used in Cover:468
GRASP Method!
Number cuts repeat: 0
value: 97.981883
Number Constraints Used in Cover:473
GRASP Method!
Number cuts repeat: 0
value: 97.981883
Number Constraints Used in Cover:478
GRASP Method!
Number cuts repeat: 0
value: 97.981883
Number Constraints Used in Cover:482
GRASP Method!
Number cuts repeat: 0
value: 97.981883
Number Constraints Used in Cover:498
GRASP Method!
Number cuts repeat: 0
value: 97.981883
Number Constraints Used in Cover:507
GRASP Method!
Number cuts repeat: 0
value: 97.981883
Number Constraints Used in Cover:524
GRASP Method!
Number cuts repeat: 0
value: 97.981883
Number Constraints Used in Cover:534
GRASP Method!
Number cuts repeat: 0
value: 97.981883
Number Constraints Used in Cover:547
GRASP Method!
Number cuts repeat: 0
value: 97.981883
Number Constraints Used in Cover:564
GRASP Method!
Number cuts repeat: 0
value: 97.981883
Number Constraints Used in Cover:575
GRASP Method!
Number cuts repeat: 0
value: 97.981883
Number Constraints Used in Cover:586
GRASP Method!
Number cuts repeat: 0
value: 97.981883
Number Constraints Used in Cover:591
GRASP Method!
Number cuts repeat: 0
value: 97.981883
Number Constraints Used in Cover:600
GRASP Method!
Number cuts repeat: 0
value: 97.981883
Number Constraints Used in Cover:604
GRASP Method!
Number cuts repeat: 0
value: 97.981883
Number Constraints Used in Cover:609
GRASP Method!
Number cuts repeat: 0
value: 97.981883
Number Constraints Used in Cover:616
GRASP Method!
Number cuts repeat: 0
value: 97.981883
Number Constraints Used in Cover:616
GRASP Method!
Number cuts repeat: 0
value: 97.981883
Number Constraints Used in Cover:623
GRASP Method!
Number cuts repeat: 0
value: 97.981883
Number Constraints Used in Cover:627
GRASP Method!
Number cuts repeat: 0
value: 97.981883
Number Constraints Used in Cover:633
GRASP Method!
Number cuts repeat: 0
value: 97.981883
Number Constraints Used in Cover:640
GRASP Method!
Number cuts repeat: 0
value: 97.981883
Number Constraints Used in Cover:647
GRASP Method!
Number cuts repeat: 0
value: 97.981883
Number Constraints Used in Cover:650
GRASP Method!
Number cuts repeat: 0
value: 97.981883
Number Constraints Used in Cover:653
GRASP Method!
Number cuts repeat: 0
value: 97.981883
Number Constraints Used in Cover:654
GRASP Method!
Number cuts repeat: 0
value: 97.981883
Number Constraints Used in Cover:658
GRASP Method!
Number cuts repeat: 0
value: 97.981883
Number Constraints Used in Cover:663
GRASP Method!
Number cuts repeat: 0
value: 97.981883
Number Constraints Used in Cover:671
GRASP Method!
Number cuts repeat: 0
value: 97.981883
Number Constraints Used in Cover:679
GRASP Method!
Number cuts repeat: 0
value: 97.981883
Number Constraints Used in Cover:681
GRASP Method!
Number cuts repeat: 0
value: 97.981883
Number Constraints Used in Cover:695
GRASP Method!
Number cuts repeat: 0
value: 97.981883
Number Constraints Used in Cover:700
GRASP Method!
Number cuts repeat: 0
value: 97.981883
Number Constraints Used in Cover:710
GRASP Method!
Number cuts repeat: 0
value: 97.981883
Number Constraints Used in Cover:716
GRASP Method!
Number cuts repeat: 0
value: 97.981883
Number Constraints Used in Cover:721
GRASP Method!
Number cuts repeat: 0
value: 97.981883
Number Constraints Used in Cover:727
GRASP Method!
Number cuts repeat: 0
value: 97.981883
Number Constraints Used in Cover:737
GRASP Method!
Number cuts repeat: 0
value: 97.981883
Number Constraints Used in Cover:742
GRASP Method!
Number cuts repeat: 0
value: 97.981883
Number Constraints Used in Cover:745
GRASP Method!
Number cuts repeat: 0
value: 97.981883
Number Constraints Used in Cover:750
GRASP Method!
Number cuts repeat: 0
value: 97.981883
Number Constraints Used in Cover:752
GRASP Method!
Number cuts repeat: 0
value: 97.981883
Number Constraints Used in Cover:755
GRASP Method!
Number cuts repeat: 0
value: 97.981883
Number Constraints Used in Cover:763
GRASP Method!
Number cuts repeat: 0
value: 97.981883
Number Constraints Used in Cover:764
GRASP Method!
Number cuts repeat: 0
value: 97.981883
Number Constraints Used in Cover:766
GRASP Method!
Number cuts repeat: 0
value: 97.981883
Number Constraints Used in Cover:772
GRASP Method!
Number cuts repeat: 0
value: 97.981883
Number Constraints Used in Cover:778
GRASP Method!
Number cuts repeat: 0
value: 97.981883
Number Constraints Used in Cover:783
GRASP Method!
Number cuts repeat: 0
value: 97.981883
Number Constraints Used in Cover:786
GRASP Method!
Number cuts repeat: 0
value: 97.981883
Number Constraints Used in Cover:792
GRASP Method!
Number cuts repeat: 0
value: 97.981883
Number Constraints Used in Cover:803
GRASP Method!
Number cuts repeat: 0
value: 97.981883
Number Cuts Final: 798
